NAME : cvrp-A-U-8-12.827.tour
COMMENT : Length = 827
COMMENT : Found by LKH [Keld Helsgaun] Thu May 17 22:42:39 2018
TYPE : TOUR
DIMENSION : 31
TOUR_SECTION
1
29
20
22
21
18
26
27
25
31
10
9
3
2
13
5
15
7
24
17
19
28
23
30
14
8
11
16
4
12
6
-1
EOF
